language ESSENCE' 1.0

letting jobs = 102
letting horizon = 829
letting resourcesRenew = 2
letting resourcesNonrenew = 2
letting resourceLimits = [52, 46, 574, 570]
letting successors = [[2, 3, 4, 5, 6, 7, 8, 9, 10, 11, 12, 13, 14, 15, 17, 18, 19, 20, 23, 24, 25, 28, 29, 31, 43, 56], [101, 100, 99, 75, 71, 70, 69, 62, 58, 54, 51, 50, 37, 35, 26, 21], [95, 75, 72, 71, 58, 55, 52, 51, 49, 45, 37, 36, 33, 30, 27], [101, 99, 98, 75, 74, 73, 72, 54, 53, 46, 41, 37, 36, 16], [95, 90, 75, 70, 69, 61, 58, 57, 51, 46, 45, 35, 22], [98, 97, 96, 93, 90, 85, 73, 72, 70, 63, 61, 60, 58, 54, 52, 42, 39, 38], [100, 99, 97, 95, 90, 84, 73, 72, 70, 68, 61, 57, 54, 53, 51, 47, 37, 30], [98, 95, 94, 75, 72, 71, 69, 63, 61, 55, 50, 36, 35, 27], [101, 97, 94, 74, 71, 67, 63, 61, 60, 59, 58, 53, 48, 44, 36], [101, 100, 99, 97, 96, 95, 94, 93, 92, 90, 86, 82, 74, 72, 70, 68, 67, 57, 52, 45], [101, 99, 98, 93, 90, 84, 75, 74, 71, 70, 68, 66, 61, 57, 54, 51, 34], [100, 95, 94, 93, 90, 88, 84, 82, 70, 61, 59, 57, 51, 34], [100, 96, 95, 94, 90, 87, 82, 70, 67, 59, 52, 45, 34], [98, 95, 82, 73, 63, 59, 57, 46, 37, 36], [97, 95, 90, 89, 86, 82, 73, 71, 69, 68, 66, 65, 64, 52, 51, 49], [97, 90, 82, 70, 69, 65, 61, 59, 52, 51, 42], [98, 72, 71, 68, 61, 58, 40, 32], [101, 95, 92, 89, 88, 71, 68, 66, 55, 49, 40], [100, 95, 94, 93, 90, 88, 87, 86, 82, 81, 78, 72, 71, 68, 65, 61, 57, 51], [96, 95, 94, 93, 88, 80, 68, 47, 40], [98, 97, 95, 94, 92, 90, 85, 84, 82, 81, 78, 77, 74, 72, 67, 63, 61], [99, 97, 94, 93, 92, 87, 86, 84, 82, 73, 72, 71, 68, 65, 63, 52], [98, 92, 90, 87, 86, 84, 71, 67, 66, 65, 64, 57, 53], [101, 90, 84, 82, 81, 77, 66, 64, 61, 60, 57, 51], [96, 95, 93, 92, 90, 89, 87, 85, 84, 83, 82, 81, 65, 64, 60, 59], [98, 96, 92, 91, 89, 88, 86, 84, 79, 78, 73, 68, 67, 64, 53], [101, 99, 90, 89, 88, 87, 86, 84, 79, 78, 70, 57, 53], [96, 95, 94, 91, 90, 89, 86, 84, 83, 76, 65, 59, 53], [98, 97, 89, 86, 85, 82, 80, 70, 67, 66, 65, 64, 52], [96, 94, 93, 92, 91, 89, 88, 86, 85, 83, 82, 78, 77, 69, 65, 64], [101, 97, 94, 93, 91, 88, 87, 86, 85, 84, 82, 81, 80, 76, 68, 65], [89, 88, 87, 84, 83, 73, 69, 65, 63, 59], [90, 84, 83, 81, 78, 77, 74, 64, 61, 57], [97, 91, 89, 86, 85, 81, 79, 78, 77, 69, 63], [87, 86, 85, 82, 80, 79, 68, 64, 52], [92, 90, 89, 88, 86, 85, 84, 83, 80, 68, 65], [93, 92, 91, 87, 86, 85, 81, 80, 76, 66, 65], [99, 95, 91, 87, 84, 80, 79, 68, 67, 64], [92, 89, 88, 82, 80, 79, 77, 67, 66, 64], [90, 86, 84, 82, 78, 77, 65, 64, 57], [94, 92, 90, 82, 79, 63, 52], [100, 95, 94, 87, 86, 84, 83, 81, 77, 64], [97, 92, 90, 86, 85, 84, 78, 77, 76, 67], [93, 88, 87, 84, 81, 80, 79, 70, 68], [98, 89, 88, 84, 80, 66, 65, 64], [94, 92, 88, 87, 79, 76, 68, 67], [86, 85, 83, 82, 81, 77, 66, 64], [90, 82, 78, 77, 57], [100, 99, 87, 84, 83, 78, 76], [91, 90, 82, 80, 79, 77], [96, 92, 85, 79, 67], [88, 81, 78, 77, 76], [93, 82, 81, 80, 77], [82, 81, 79, 77], [93, 86, 84, 81], [86, 84, 78, 76], [91, 85, 76], [82, 77, 76], [77, 66], [78, 69], [89, 80], [83, 76], [64], [76], [79], [78], [83], [77], [80], [76], [80], [79], [81], [87], [77], [102], [102], [102], [102], [102], [102], [102], [102], [102], [102], [102], [102], [102], [102], [102], [102], [102], [102], [102], [102], [102], [102], [102], [102], [102], [102], []]
letting durations = [[0], [2, 7, 10], [3, 4, 10], [7, 9, 10], [7, 8, 9], [7, 8, 10], [4, 5, 9], [2, 5, 7], [2, 4, 9], [3, 9, 10], [3, 4, 5], [3, 8, 10], [3, 4, 5], [6, 8, 9], [4, 7, 10], [3, 4, 7], [3, 7, 9], [5, 6, 10], [6, 7, 9], [2, 5, 6], [2, 3, 6], [1, 2, 8], [7, 8, 9], [3, 6, 9], [2, 6, 7], [3, 7, 8], [4, 5, 6], [2, 3, 8], [2, 8, 10], [6, 9, 10], [3, 4, 5], [5, 7, 10], [4, 7, 8], [6, 7, 8], [5, 6, 8], [7, 8, 9], [2, 5, 10], [4, 6, 10], [1, 6, 10], [8, 9, 10], [3, 6, 10], [4, 6, 7], [1, 2, 10], [3, 7, 8], [4, 5, 10], [1, 6, 10], [3, 7, 10], [2, 7, 10], [4, 5, 8], [1, 3, 7], [1, 4, 8], [1, 2, 9], [2, 4, 5], [1, 5, 10], [3, 4, 5], [6, 8, 9], [4, 7, 8], [2, 9, 10], [1, 4, 10], [1, 2, 8], [5, 7, 8], [4, 5, 7], [1, 4, 6], [2, 3, 8], [4, 8, 10], [2, 9, 10], [4, 6, 7], [4, 8, 9], [7, 8, 9], [1, 3, 9], [1, 2, 8], [1, 2, 3], [1, 4, 8], [3, 4, 5], [4, 6, 8], [2, 4, 5], [1, 4, 7], [5, 9, 10], [4, 6, 9], [2, 5, 9], [4, 5, 8], [4, 7, 8], [3, 5, 8], [4, 5, 6], [4, 5, 9], [4, 5, 9], [3, 5, 10], [1, 4, 7], [2, 4, 8], [5, 6, 8], [3, 4, 6], [1, 3, 7], [1, 3, 7], [1, 6, 7], [3, 5, 10], [2, 3, 7], [1, 3, 9], [1, 6, 9], [1, 3, 7], [3, 8, 9], [5, 9, 10], [0]]
letting resourceUsage = [[[0, 0, 0, 0]], [[6, 5, 3, 6], [4, 4, 3, 5], [4, 4, 2, 3]], [[8, 4, 8, 7], [5, 2, 8, 4], [4, 2, 6, 1]], [[5, 6, 4, 8], [5, 4, 2, 5], [5, 4, 2, 4]], [[4, 2, 4, 9], [4, 1, 4, 7], [4, 1, 4, 6]], [[6, 9, 5, 6], [5, 7, 3, 4], [5, 3, 1, 3]], [[9, 6, 5, 6], [5, 5, 5, 4], [2, 5, 4, 4]], [[6, 6, 6, 8], [5, 5, 5, 6], [5, 5, 3, 6]], [[9, 7, 5, 6], [9, 5, 3, 6], [8, 4, 3, 6]], [[9, 9, 9, 7], [9, 7, 9, 5], [7, 3, 8, 4]], [[3, 6, 4, 6], [3, 5, 2, 5], [1, 5, 1, 5]], [[6, 8, 10, 8], [5, 8, 9, 4], [4, 8, 8, 1]], [[7, 2, 9, 8], [7, 1, 5, 5], [7, 1, 3, 3]], [[10, 8, 9, 5], [7, 8, 6, 4], [2, 8, 5, 3]], [[8, 6, 6, 5], [8, 6, 5, 3], [5, 6, 1, 3]], [[4, 10, 6, 2], [4, 10, 5, 1], [3, 10, 4, 1]], [[7, 9, 9, 7], [7, 8, 7, 6], [4, 8, 7, 5]], [[9, 4, 2, 5], [8, 3, 1, 4], [7, 3, 1, 3]], [[7, 3, 7, 9], [6, 2, 5, 8], [6, 2, 4, 8]], [[5, 7, 7, 1], [4, 7, 4, 1], [3, 7, 3, 1]], [[8, 8, 8, 5], [6, 8, 8, 4], [6, 8, 6, 4]], [[9, 6, 5, 3], [6, 4, 4, 3], [4, 3, 3, 3]], [[6, 8, 9, 8], [6, 5, 9, 6], [6, 4, 7, 2]], [[6, 1, 8, 6], [5, 1, 6, 4], [5, 1, 5, 3]], [[7, 3, 9, 4], [7, 1, 8, 4], [5, 1, 7, 3]], [[6, 10, 8, 8], [5, 8, 7, 7], [3, 7, 7, 7]], [[10, 4, 8, 7], [9, 3, 8, 7], [8, 1, 6, 7]], [[4, 9, 6, 6], [3, 8, 6, 6], [3, 7, 6, 4]], [[5, 3, 6, 7], [5, 2, 5, 7], [4, 2, 4, 7]], [[9, 5, 4, 2], [8, 5, 4, 1], [5, 5, 4, 1]], [[8, 7, 4, 7], [5, 7, 4, 7], [4, 3, 3, 7]], [[10, 8, 2, 3], [8, 8, 1, 2], [8, 8, 1, 1]], [[9, 3, 8, 10], [8, 3, 7, 7], [8, 1, 5, 5]], [[6, 8, 4, 8], [5, 7, 4, 8], [5, 6, 4, 7]], [[7, 4, 7, 10], [7, 4, 6, 8], [7, 4, 5, 7]], [[6, 9, 1, 6], [5, 9, 1, 5], [3, 9, 1, 2]], [[5, 4, 8, 4], [4, 4, 6, 3], [3, 3, 4, 2]], [[9, 5, 6, 10], [8, 5, 5, 5], [5, 5, 4, 3]], [[6, 5, 7, 3], [4, 5, 6, 2], [3, 5, 3, 2]], [[2, 9, 6, 3], [2, 7, 6, 3], [2, 7, 2, 1]], [[8, 9, 7, 2], [6, 8, 7, 2], [3, 8, 5, 2]], [[2, 8, 5, 9], [2, 5, 4, 7], [2, 4, 3, 4]], [[10, 9, 3, 8], [9, 4, 2, 6], [9, 4, 2, 1]], [[3, 7, 7, 10], [3, 5, 5, 4], [3, 5, 3, 3]], [[6, 2, 7, 10], [4, 2, 5, 7], [3, 1, 5, 5]], [[7, 8, 8, 9], [7, 4, 7, 7], [7, 4, 5, 1]], [[10, 5, 4, 9], [8, 5, 4, 9], [8, 5, 4, 8]], [[7, 6, 8, 6], [6, 6, 7, 5], [6, 4, 5, 3]], [[8, 4, 8, 4], [8, 3, 7, 3], [7, 3, 4, 1]], [[8, 5, 5, 7], [5, 3, 3, 6], [2, 3, 3, 6]], [[7, 3, 7, 1], [6, 2, 4, 1], [6, 2, 3, 1]], [[7, 6, 7, 3], [4, 5, 6, 3], [4, 3, 6, 3]], [[9, 10, 7, 7], [6, 6, 6, 7], [1, 4, 6, 4]], [[8, 5, 5, 9], [3, 4, 3, 8], [2, 4, 2, 8]], [[6, 2, 4, 6], [5, 1, 4, 4], [5, 1, 4, 2]], [[9, 9, 5, 8], [7, 9, 3, 5], [6, 8, 3, 4]], [[7, 10, 4, 8], [6, 10, 3, 7], [4, 10, 3, 5]], [[7, 4, 7, 7], [6, 4, 7, 6], [6, 1, 6, 4]], [[8, 8, 9, 9], [4, 8, 6, 9], [1, 7, 6, 9]], [[4, 10, 6, 8], [3, 10, 6, 7], [2, 10, 6, 7]], [[6, 9, 8, 6], [5, 8, 5, 5], [2, 6, 3, 4]], [[4, 8, 8, 5], [3, 7, 5, 4], [1, 5, 4, 2]], [[9, 8, 7, 5], [7, 7, 5, 4], [6, 6, 3, 3]], [[6, 5, 5, 8], [2, 4, 5, 6], [1, 2, 5, 4]], [[8, 5, 7, 7], [8, 5, 7, 6], [7, 5, 5, 5]], [[6, 9, 5, 1], [4, 9, 5, 1], [3, 8, 4, 1]], [[6, 5, 8, 3], [6, 4, 6, 3], [3, 3, 5, 3]], [[8, 4, 9, 5], [3, 2, 8, 3], [2, 2, 8, 2]], [[5, 5, 8, 10], [2, 4, 7, 7], [2, 1, 7, 6]], [[5, 9, 9, 5], [4, 9, 5, 2], [3, 8, 3, 1]], [[7, 7, 5, 6], [7, 6, 4, 5], [4, 6, 2, 2]], [[6, 9, 8, 8], [6, 6, 8, 5], [3, 4, 8, 5]], [[6, 5, 7, 7], [6, 4, 4, 6], [6, 1, 2, 6]], [[6, 6, 8, 5], [4, 5, 8, 5], [2, 4, 8, 3]], [[7, 8, 3, 4], [5, 4, 2, 2], [2, 2, 2, 2]], [[8, 5, 10, 6], [6, 3, 7, 5], [4, 3, 1, 4]], [[7, 4, 4, 7], [6, 3, 3, 5], [3, 2, 1, 4]], [[5, 4, 3, 6], [3, 3, 3, 3], [2, 3, 1, 2]], [[4, 5, 8, 8], [4, 3, 8, 7], [4, 3, 8, 6]], [[3, 6, 8, 7], [3, 4, 7, 7], [3, 3, 7, 6]], [[7, 5, 3, 3], [4, 4, 3, 3], [3, 4, 2, 3]], [[3, 3, 6, 4], [1, 2, 5, 5], [1, 2, 5, 4]], [[6, 5, 4, 6], [6, 4, 4, 5], [6, 4, 4, 3]], [[5, 5, 5, 3], [3, 3, 5, 3], [2, 3, 4, 1]], [[4, 9, 8, 5], [2, 7, 7, 2], [1, 5, 7, 1]], [[10, 7, 8, 8], [8, 6, 4, 8], [8, 4, 4, 7]], [[5, 7, 7, 6], [3, 7, 6, 6], [2, 7, 5, 3]], [[3, 10, 5, 7], [3, 9, 4, 7], [1, 9, 3, 6]], [[8, 5, 4, 6], [8, 4, 4, 4], [7, 3, 4, 4]], [[10, 5, 10, 5], [9, 5, 4, 3], [9, 5, 2, 2]], [[8, 10, 4, 10], [7, 9, 3, 5], [2, 9, 3, 1]], [[4, 7, 7, 8], [3, 5, 6, 7], [3, 3, 5, 5]], [[9, 2, 6, 5], [8, 2, 5, 4], [6, 2, 4, 4]], [[9, 7, 7, 10], [6, 3, 5, 9], [4, 1, 5, 8]], [[8, 4, 8, 6], [6, 3, 6, 4], [3, 3, 5, 4]], [[5, 7, 7, 8], [5, 7, 3, 5], [4, 5, 1, 4]], [[8, 9, 7, 5], [6, 7, 4, 5], [4, 4, 2, 3]], [[9, 8, 6, 7], [7, 5, 3, 7], [5, 3, 3, 3]], [[9, 8, 7, 8], [4, 6, 6, 5], [1, 4, 4, 4]], [[4, 9, 3, 5], [2, 5, 2, 2], [2, 4, 1, 2]], [[3, 9, 6, 9], [3, 7, 3, 8], [3, 4, 2, 8]], [[0, 0, 0, 0]]]
